TCS_Benchmarks/redos_fix/regexlib1_output_distinct_2358_2357_128_0.smt2
(set-logic QF_S)
(declare-const x String)
(assert (str.in.re x (re.inter  (re.union  (re.++  (str.to.re "\u{77}") (re.++  (str.to.re "\u{69}") (re.++  (str.to.re "\u{64}") (re.++  (str.to.re "\u{74}")  (str.to.re "\u{68}"))))) (re.union  (re.++  (str.to.re "\u{68}") (re.++  (str.to.re "\u{65}") (re.++  (str.to.re "\u{69}") (re.++  (str.to.re "\u{67}") (re.++  (str.to.re "\u{68}")  (str.to.re "\u{74}")))))) (re.union  (re.++  (str.to.re "\u{61}") (re.++  (str.to.re "\u{6c}")  (str.to.re "\u{74}"))) (re.union  (re.++  (str.to.re "\u{61}") (re.++  (str.to.re "\u{6c}") (re.++  (str.to.re "\u{69}") (re.++  (str.to.re "\u{67}")  (str.to.re "\u{6e}")))))  (re.++  (str.to.re "\u{73}") (re.++  (str.to.re "\u{74}") (re.++  (str.to.re "\u{79}") (re.++  (str.to.re "\u{6c}")  (str.to.re "\u{65}"))))))))) (re.* (re.comp  (str.to.re "\u{22}")) ) )))
(check-sat)
(get-model)