TCS_Benchmarks/redos_fix/regexlib1_output_distinct_2358_2357_128_0.txt
width|height|alt|align|style
[^"]*